25397
0 0 1 0 1 0 1 0 1 0 0 0 0 1 0 0 0 1 1 0 0 0 0 1 1 1 0 0 1 0 
18 6 2 24 2 6 2 28 18 28 4 28 13 13 28 18 13 13 18 17 18 24 23 24 23 18 24 28 4 2 6 4 4 24 28 6 8 8 24 24 18 8 6 4 8 4 13 2 6 17 24 24 24 24 8 6 25 8 18 25 4 17 25 8 13 25 23 17 28 25 18 6 6 8 23 23 8 23 8 24 23 17 8 25 4 13 6 2 24 25 28 6 25 25 2 13 28 6 17 28 28 2 25 18 4 17 4 24 18 13 4 4 18 6 6 8 28 25 17 8 8 25 17 6 4 24 2 28 4 17 28 24 25 8 23 8 13 13 28 17 6 18 28 25 25 2 24 2 18 25 24 17 23 17 8 28 2 24 13 13 13 28 23 24 23 18 23 4 13 2 23 8 28 17 4 2 17 23 4 23 2 2 2 6 25 8 28 23 17 24 2 2 6 4 25 6 25 2 23 6 
